decision_x1=[0,2];
decision_x2=[0,2];
decision_x3=[0,2];
decision_x4=[0,2];
decision_x5=[0,2];
decision_x6=[0,2];
decision_x7=[0,2];
decision_x8=[0,2];
decision_x9=[0,2];
decision_x10=[0,2];
decision_x11=[0,2];
decision_x12=[0,2];
random_y1=[0,2];
random_y2=[0,2];
random_y3=[0,2];
random_y4=[0,2];
random_y5=[0,2];
random_y6=[0,2];
random_y7=[0,2];
random_y8=[0,2];
random_y9=[0,2];
random_y10=[0,2];
random_y11=[0,2];
random_y12=[0,2];
constraint_x2_x1=[
0,0,73|
0,1,97|
0,2,76|
1,0,69|
1,1,91|
1,2,95|
2,0,27|
2,1,0.82|
2,2,73|
];
constraint_x4_x2=[
0,0,47|
0,1,37|
0,2,63|
1,0,34|
1,1,1.9|
1,2,14|
2,0,39|
2,1,20|
2,2,19|
];
constraint_x4_x3=[
0,0,63|
0,1,65|
0,2,22|
1,0,56|
1,1,57|
1,2,44|
2,0,78|
2,1,68|
2,2,75|
];
constraint_x5_x1=[
0,0,37|
0,1,88|
0,2,76|
1,0,45|
1,1,93|
1,2,36|
2,0,79|
2,1,97|
2,2,66|
];
constraint_x5_x2=[
0,0,24|
0,1,43|
0,2,46|
1,0,31|
1,1,37|
1,2,23|
2,0,55|
2,1,31|
2,2,5|
];
constraint_x5_x4=[
0,0,98|
0,1,72|
0,2,0.76|
1,0,50|
1,1,92|
1,2,57|
2,0,50|
2,1,51|
2,2,78|
];
constraint_x6_x2=[
0,0,37|
0,1,31|
0,2,40|
1,0,16|
1,1,88|
1,2,60|
2,0,12|
2,1,51|
2,2,20|
];
constraint_x7_x1=[
0,0,50|
0,1,70|
0,2,22|
1,0,85|
1,1,97|
1,2,14|
2,0,39|
2,1,50|
2,2,41|
];
constraint_x7_x3=[
0,0,53|
0,1,94|
0,2,27|
1,0,16|
1,1,87|
1,2,19|
2,0,33|
2,1,74|
2,2,27|
];
constraint_x8_x2=[
0,0,63|
0,1,91|
0,2,93|
1,0,71|
1,1,1.5|
1,2,59|
2,0,55|
2,1,56|
2,2,2.7|
];
constraint_x8_x6=[
0,0,71|
0,1,55|
0,2,5.3|
1,0,77|
1,1,95|
1,2,83|
2,0,49|
2,1,13|
2,2,34|
];
constraint_x9_x3=[
0,0,52|
0,1,66|
0,2,89|
1,0,55|
1,1,46|
1,2,7.1|
2,0,98|
2,1,5.7|
2,2,64|
];
constraint_x9_x5=[
0,0,8.8|
0,1,52|
0,2,34|
1,0,45|
1,1,70|
1,2,46|
2,0,66|
2,1,57|
2,2,4.3|
];
constraint_x9_x6=[
0,0,15|
0,1,9|
0,2,50|
1,0,54|
1,1,41|
1,2,30|
2,0,72|
2,1,24|
2,2,19|
];
constraint_x9_x7=[
0,0,33|
0,1,74|
0,2,52|
1,0,51|
1,1,86|
1,2,0.21|
2,0,25|
2,1,87|
2,2,89|
];
constraint_x9_x8=[
0,0,54|
0,1,15|
0,2,74|
1,0,78|
1,1,46|
1,2,35|
2,0,1.7|
2,1,76|
2,2,34|
];
constraint_x10_x1=[
0,0,89|
0,1,77|
0,2,78|
1,0,73|
1,1,11|
1,2,23|
2,0,27|
2,1,89|
2,2,1e+02|
];
constraint_x10_x4=[
0,0,46|
0,1,52|
0,2,93|
1,0,49|
1,1,76|
1,2,10|
2,0,24|
2,1,68|
2,2,29|
];
constraint_x10_x5=[
0,0,22|
0,1,62|
0,2,11|
1,0,88|
1,1,21|
1,2,72|
2,0,66|
2,1,91|
2,2,50|
];
constraint_x10_x6=[
0,0,91|
0,1,70|
0,2,91|
1,0,97|
1,1,69|
1,2,46|
2,0,96|
2,1,22|
2,2,53|
];
constraint_x10_x7=[
0,0,29|
0,1,66|
0,2,93|
1,0,10|
1,1,89|
1,2,81|
2,0,89|
2,1,47|
2,2,94|
];
constraint_x10_x9=[
0,0,41|
0,1,85|
0,2,38|
1,0,2.7|
1,1,99|
1,2,93|
2,0,18|
2,1,50|
2,2,79|
];
constraint_x11_x3=[
0,0,86|
0,1,34|
0,2,58|
1,0,11|
1,1,34|
1,2,0.85|
2,0,42|
2,1,0.84|
2,2,57|
];
constraint_x11_x4=[
0,0,26|
0,1,58|
0,2,75|
1,0,47|
1,1,49|
1,2,71|
2,0,39|
2,1,41|
2,2,52|
];
constraint_x11_x6=[
0,0,33|
0,1,47|
0,2,65|
1,0,1.7|
1,1,5.3|
1,2,34|
2,0,3.1|
2,1,69|
2,2,45|
];
constraint_x11_x7=[
0,0,98|
0,1,85|
0,2,27|
1,0,18|
1,1,73|
1,2,58|
2,0,69|
2,1,81|
2,2,66|
];
constraint_x11_x9=[
0,0,55|
0,1,36|
0,2,81|
1,0,70|
1,1,14|
1,2,41|
2,0,94|
2,1,48|
2,2,90|
];
constraint_x12_x3=[
0,0,80|
0,1,67|
0,2,86|
1,0,99|
1,1,49|
1,2,9.9|
2,0,50|
2,1,70|
2,2,35|
];
constraint_x12_x4=[
0,0,62|
0,1,74|
0,2,74|
1,0,74|
1,1,86|
1,2,9.6|
2,0,18|
2,1,3.4|
2,2,15|
];
constraint_x12_x6=[
0,0,13|
0,1,29|
0,2,11|
1,0,50|
1,1,27|
1,2,76|
2,0,48|
2,1,53|
2,2,28|
];
constraint_x12_x9=[
0,0,44|
0,1,80|
0,2,88|
1,0,88|
1,1,57|
1,2,56|
2,0,18|
2,1,54|
2,2,58|
];
constraint_x12_x10=[
0,0,41|
0,1,48|
0,2,4.4|
1,0,49|
1,1,44|
1,2,98|
2,0,15|
2,1,30|
2,2,93|
];
constraint_x12_x11=[
0,0,44|
0,1,48|
0,2,30|
1,0,19|
1,1,73|
1,2,84|
2,0,13|
2,1,23|
2,2,82|
];
constraint_x1_y1=[
0,0,86|
0,1,50|
0,2,88|
1,0,82|
1,1,21|
1,2,76|
2,0,29|
2,1,51|
2,2,21|
];
constraint_x2_y2=[
0,0,37|
0,1,93|
0,2,15|
1,0,68|
1,1,27|
1,2,24|
2,0,81|
2,1,40|
2,2,96|
];
constraint_x3_y3=[
0,0,71|
0,1,26|
0,2,33|
1,0,66|
1,1,65|
1,2,43|
2,0,41|
2,1,31|
2,2,3.7|
];
constraint_x4_y4=[
0,0,20|
0,1,27|
0,2,5.4|
1,0,56|
1,1,78|
1,2,60|
2,0,26|
2,1,54|
2,2,66|
];
constraint_x5_y5=[
0,0,50|
0,1,20|
0,2,22|
1,0,93|
1,1,87|
1,2,97|
2,0,64|
2,1,1.7|
2,2,34|
];
constraint_x6_y6=[
0,0,31|
0,1,70|
0,2,22|
1,0,21|
1,1,68|
1,2,37|
2,0,19|
2,1,74|
2,2,13|
];
constraint_x7_y7=[
0,0,5.1|
0,1,5.1|
0,2,18|
1,0,80|
1,1,45|
1,2,61|
2,0,22|
2,1,92|
2,2,96|
];
constraint_x8_y8=[
0,0,35|
0,1,9.4|
0,2,12|
1,0,10|
1,1,3.8|
1,2,98|
2,0,64|
2,1,11|
2,2,14|
];
constraint_x9_y9=[
0,0,6.1|
0,1,0.8|
0,2,8|
1,0,44|
1,1,29|
1,2,23|
2,0,93|
2,1,65|
2,2,6.3|
];
constraint_x10_y10=[
0,0,74|
0,1,54|
0,2,56|
1,0,12|
1,1,16|
1,2,48|
2,0,78|
2,1,21|
2,2,92|
];
constraint_x11_y11=[
0,0,35|
0,1,45|
0,2,62|
1,0,44|
1,1,86|
1,2,79|
2,0,84|
2,1,3.6|
2,2,37|
];
constraint_x12_y12=[
0,0,46|
0,1,47|
0,2,71|
1,0,28|
1,1,61|
1,2,0.026|
2,0,93|
2,1,63|
2,2,88|
];
initial_distribution_y1=[0.45,0.27,0.28];
initial_distribution_y2=[0.58,0.14,0.28];
initial_distribution_y3=[0.21,0.41,0.38];
initial_distribution_y4=[0.4,0.39,0.21];
initial_distribution_y5=[0.26,0.28,0.46];
initial_distribution_y6=[0.38,0.39,0.23];
initial_distribution_y7=[0.015,0.56,0.42];
initial_distribution_y8=[0.86,0.097,0.043];
initial_distribution_y9=[0.33,0.51,0.15];
initial_distribution_y10=[0.46,0.24,0.29];
initial_distribution_y11=[0.12,0.24,0.64];
initial_distribution_y12=[0.49,0.45,0.059];
transition_y1=[
0.45,0.48,0.068|
0.39,0.56,0.052|
0.21,0.32,0.47|
];
transition_y2=[
0.058,0.41,0.53|
0.45,0.42,0.12|
0.22,0.65,0.13|
];
transition_y3=[
0.56,0.073,0.37|
0.44,0.41,0.14|
0.056,0.43,0.51|
];
transition_y4=[
0.23,0.4,0.37|
0.53,0.22,0.25|
0.41,0.46,0.13|
];
transition_y5=[
0.43,0.3,0.26|
0.32,0.4,0.28|
0.24,0.31,0.45|
];
transition_y6=[
0.34,0.45,0.21|
0.76,0.15,0.089|
0.48,0.32,0.21|
];
transition_y7=[
0.073,0.56,0.37|
0.53,0.11,0.36|
0.36,0.26,0.38|
];
transition_y8=[
0.22,0.55,0.23|
0.51,0.033,0.46|
0.45,0.11,0.44|
];
transition_y9=[
0.51,0.36,0.13|
0.45,0.35,0.2|
0.36,0.48,0.16|
];
transition_y10=[
0.21,0.43,0.36|
0.42,0.31,0.27|
0.53,0.31,0.15|
];
transition_y11=[
0.6,0.24,0.16|
0.26,0.35,0.39|
0.6,0.19,0.21|
];
transition_y12=[
0.55,0.37,0.08|
0.14,0.27,0.59|
0.31,0.33,0.36|
];
